
Gurobi 11.0.1 (linux64, gurobi_cl) logging started Sun Mar  2 15:19:05 2025

Set parameter TokenServer to value "lic-gurobi.aalto.fi"
Set parameter LogFile to value "gurobi.log"
Using license file /appl/manual_installations/software/gurobi/license/gurobi.lic

Gurobi 11.0.1 (linux64, gurobi_cl) logging started Sun Mar  2 15:20:24 2025

Set parameter TokenServer to value "lic-gurobi.aalto.fi"
Set parameter LogFile to value "gurobi.log"
Using license file /appl/manual_installations/software/gurobi/license/gurobi.lic

Gurobi 11.0.1 (linux64, gurobi_cl) logging started Sun Mar  2 15:20:40 2025

Set parameter TokenServer to value "lic-gurobi.aalto.fi"
Set parameter LogFile to value "gurobi.log"
Using license file /appl/manual_installations/software/gurobi/license/gurobi.lic

Gurobi 11.0.1 (linux64, gurobi_cl) logging started Sun Mar  2 15:20:52 2025

Set parameter TokenServer to value "lic-gurobi.aalto.fi"
Set parameter LogFile to value "gurobi.log"
Using license file /appl/manual_installations/software/gurobi/license/gurobi.lic

Gurobi 11.0.1 (linux64, gurobi_cl) logging started Sun Mar  2 15:22:13 2025

Set parameter TokenServer to value "lic-gurobi.aalto.fi"
Set parameter LogFile to value "gurobi.log"
Using license file /appl/manual_installations/software/gurobi/license/gurobi.lic

Gurobi 11.0.1 (linux64, gurobi_cl) logging started Sun Mar  2 15:22:44 2025

Set parameter TokenServer to value "lic-gurobi.aalto.fi"
Set parameter LogFile to value "gurobi.log"
Using license file /appl/manual_installations/software/gurobi/license/gurobi.lic

Gurobi 11.0.1 (linux64, gurobi_cl) logging started Sun Mar  2 15:23:13 2025

Set parameter TokenServer to value "lic-gurobi.aalto.fi"
Set parameter LogFile to value "gurobi.log"
Using license file /appl/manual_installations/software/gurobi/license/gurobi.lic

Gurobi 11.0.1 (linux64, gurobi_cl) logging started Sun Mar  2 15:23:41 2025

Set parameter TokenServer to value "lic-gurobi.aalto.fi"
Set parameter LogFile to value "gurobi.log"
Using license file /appl/manual_installations/software/gurobi/license/gurobi.lic

Gurobi 11.0.1 (linux64, gurobi_cl) logging started Sun Mar  2 15:25:14 2025

Set parameter TokenServer to value "lic-gurobi.aalto.fi"
Set parameter LogFile to value "gurobi.log"
Using license file /appl/manual_installations/software/gurobi/license/gurobi.lic

Gurobi 11.0.1 (linux64, gurobi_cl) logging started Sun Mar  2 15:26:24 2025

Set parameter TokenServer to value "lic-gurobi.aalto.fi"
Set parameter LogFile to value "gurobi.log"
Using license file /appl/manual_installations/software/gurobi/license/gurobi.lic

Gurobi 11.0.1 (linux64, gurobi_cl) logging started Sun Mar  2 15:26:51 2025

Set parameter TokenServer to value "lic-gurobi.aalto.fi"
Set parameter LogFile to value "gurobi.log"
Using license file /appl/manual_installations/software/gurobi/license/gurobi.lic

Gurobi 11.0.1 (linux64, gurobi_cl) logging started Sun Mar  2 15:27:06 2025

Set parameter TokenServer to value "lic-gurobi.aalto.fi"
Set parameter LogFile to value "gurobi.log"
Using license file /appl/manual_installations/software/gurobi/license/gurobi.lic

Gurobi 11.0.1 (linux64, gurobi_cl) logging started Sun Mar  2 15:27:26 2025

Set parameter TokenServer to value "lic-gurobi.aalto.fi"
Set parameter LogFile to value "gurobi.log"
Using license file /appl/manual_installations/software/gurobi/license/gurobi.lic

Gurobi 11.0.1 (linux64, gurobi_cl) logging started Sun Mar  2 15:27:48 2025

Set parameter TokenServer to value "lic-gurobi.aalto.fi"
Set parameter LogFile to value "gurobi.log"
Using license file /appl/manual_installations/software/gurobi/license/gurobi.lic

Gurobi 11.0.1 (linux64, gurobi_cl) logging started Sun Mar  2 15:28:02 2025

Set parameter TokenServer to value "lic-gurobi.aalto.fi"
Set parameter LogFile to value "gurobi.log"
Using license file /appl/manual_installations/software/gurobi/license/gurobi.lic

Gurobi 11.0.1 (linux64, gurobi_cl) logging started Sun Mar  2 15:29:59 2025

Set parameter TokenServer to value "lic-gurobi.aalto.fi"
Set parameter LogFile to value "gurobi.log"
Using license file /appl/manual_installations/software/gurobi/license/gurobi.lic

Gurobi 11.0.1 (linux64, gurobi_cl) logging started Sun Mar  2 15:30:13 2025

Set parameter TokenServer to value "lic-gurobi.aalto.fi"
Set parameter LogFile to value "gurobi.log"
Using license file /appl/manual_installations/software/gurobi/license/gurobi.lic

Gurobi 11.0.1 (linux64, gurobi_cl) logging started Sun Mar  2 15:30:37 2025

Set parameter TokenServer to value "lic-gurobi.aalto.fi"
Set parameter LogFile to value "gurobi.log"
Using license file /appl/manual_installations/software/gurobi/license/gurobi.lic

Gurobi 11.0.1 (linux64, gurobi_cl) logging started Mon Mar  3 16:40:49 2025

Set parameter TokenServer to value "lic-gurobi.aalto.fi"
Set parameter LogFile to value "gurobi.log"
Using license file /appl/manual_installations/software/gurobi/license/gurobi.lic

Gurobi 11.0.1 (linux64, gurobi_cl) logging started Mon Mar  3 16:58:02 2025

Set parameter TokenServer to value "lic-gurobi.aalto.fi"
Set parameter LogFile to value "gurobi.log"
Using license file /appl/manual_installations/software/gurobi/license/gurobi.lic

Gurobi 11.0.1 (linux64, gurobi_cl) logging started Mon Mar  3 16:59:08 2025

Set parameter TokenServer to value "lic-gurobi.aalto.fi"
Set parameter LogFile to value "gurobi.log"
Using license file /appl/manual_installations/software/gurobi/license/gurobi.lic

Gurobi 11.0.1 (linux64, gurobi_cl) logging started Mon Mar  3 16:59:15 2025

Set parameter TokenServer to value "lic-gurobi.aalto.fi"
Set parameter LogFile to value "gurobi.log"
Using license file /appl/manual_installations/software/gurobi/license/gurobi.lic

Gurobi 11.0.1 (linux64, gurobi_cl) logging started Mon Mar  3 16:59:26 2025

Set parameter TokenServer to value "lic-gurobi.aalto.fi"
Set parameter LogFile to value "gurobi.log"
Using license file /appl/manual_installations/software/gurobi/license/gurobi.lic

Gurobi 11.0.1 (linux64, gurobi_cl) logging started Mon Mar  3 17:02:21 2025

Set parameter TokenServer to value "lic-gurobi.aalto.fi"
Set parameter LogFile to value "gurobi.log"
Using license file /appl/manual_installations/software/gurobi/license/gurobi.lic

Gurobi 11.0.1 (linux64, gurobi_cl) logging started Mon Mar  3 17:03:02 2025

Set parameter TokenServer to value "lic-gurobi.aalto.fi"
Set parameter LogFile to value "gurobi.log"
Using license file /appl/manual_installations/software/gurobi/license/gurobi.lic

Gurobi 11.0.1 (linux64, gurobi_cl) logging started Mon Mar  3 17:03:21 2025

Set parameter TokenServer to value "lic-gurobi.aalto.fi"
Set parameter LogFile to value "gurobi.log"
Using license file /appl/manual_installations/software/gurobi/license/gurobi.lic

Gurobi 11.0.1 (linux64, gurobi_cl) logging started Mon Mar  3 21:21:56 2025

Set parameter TokenServer to value "lic-gurobi.aalto.fi"
Set parameter LogFile to value "gurobi.log"
Using license file /appl/manual_installations/software/gurobi/license/gurobi.lic

Gurobi 11.0.1 (linux64, gurobi_cl) logging started Sun Mar  9 23:39:13 2025

Set parameter TokenServer to value "lic-gurobi.aalto.fi"
Set parameter LogFile to value "gurobi.log"
Using license file /appl/manual_installations/software/gurobi/license/gurobi.lic

Gurobi 11.0.1 (linux64, gurobi_cl) logging started Sun Mar  9 23:39:53 2025

Set parameter TokenServer to value "lic-gurobi.aalto.fi"
Set parameter LogFile to value "gurobi.log"
Using license file /appl/manual_installations/software/gurobi/license/gurobi.lic

Gurobi 11.0.1 (linux64, gurobi_cl) logging started Sun Mar  9 23:44:32 2025

Set parameter TokenServer to value "lic-gurobi.aalto.fi"
Set parameter LogFile to value "gurobi.log"
Using license file /appl/manual_installations/software/gurobi/license/gurobi.lic

Gurobi 11.0.1 (linux64, gurobi_cl) logging started Sun Mar  9 23:44:50 2025

Set parameter TokenServer to value "lic-gurobi.aalto.fi"
Set parameter LogFile to value "gurobi.log"
Using license file /appl/manual_installations/software/gurobi/license/gurobi.lic

Gurobi 11.0.1 (linux64, gurobi_cl) logging started Sun Mar  9 23:45:26 2025

Set parameter TokenServer to value "lic-gurobi.aalto.fi"
Set parameter LogFile to value "gurobi.log"
Using license file /appl/manual_installations/software/gurobi/license/gurobi.lic

Gurobi 11.0.1 (linux64, gurobi_cl) logging started Sun Mar  9 23:45:55 2025

Set parameter TokenServer to value "lic-gurobi.aalto.fi"
Set parameter LogFile to value "gurobi.log"
Using license file /appl/manual_installations/software/gurobi/license/gurobi.lic

Gurobi 11.0.1 (linux64, gurobi_cl) logging started Sun Mar  9 23:46:23 2025

Set parameter TokenServer to value "lic-gurobi.aalto.fi"
Set parameter LogFile to value "gurobi.log"
Using license file /appl/manual_installations/software/gurobi/license/gurobi.lic

Gurobi 11.0.1 (linux64, gurobi_cl) logging started Sun Mar  9 23:46:37 2025

Set parameter TokenServer to value "lic-gurobi.aalto.fi"
Set parameter LogFile to value "gurobi.log"
Using license file /appl/manual_installations/software/gurobi/license/gurobi.lic

Gurobi 11.0.1 (linux64, gurobi_cl) logging started Sun Mar  9 23:49:14 2025

Set parameter TokenServer to value "lic-gurobi.aalto.fi"
Set parameter LogFile to value "gurobi.log"
Using license file /appl/manual_installations/software/gurobi/license/gurobi.lic

Gurobi 11.0.1 (linux64, gurobi_cl) logging started Sun Mar  9 23:52:52 2025

Set parameter TokenServer to value "lic-gurobi.aalto.fi"
Set parameter LogFile to value "gurobi.log"
Using license file /appl/manual_installations/software/gurobi/license/gurobi.lic

Gurobi 11.0.1 (linux64, gurobi_cl) logging started Sun Mar  9 23:53:54 2025

Set parameter TokenServer to value "lic-gurobi.aalto.fi"
Set parameter LogFile to value "gurobi.log"
Using license file /appl/manual_installations/software/gurobi/license/gurobi.lic

Gurobi 11.0.1 (linux64, gurobi_cl) logging started Sun Mar  9 23:54:39 2025

Set parameter TokenServer to value "lic-gurobi.aalto.fi"
Set parameter LogFile to value "gurobi.log"
Using license file /appl/manual_installations/software/gurobi/license/gurobi.lic

Gurobi 11.0.1 (linux64, gurobi_cl) logging started Sun Mar  9 23:54:54 2025

Set parameter TokenServer to value "lic-gurobi.aalto.fi"
Set parameter LogFile to value "gurobi.log"
Using license file /appl/manual_installations/software/gurobi/license/gurobi.lic

Gurobi 11.0.1 (linux64, gurobi_cl) logging started Sun Mar  9 23:57:21 2025

Set parameter TokenServer to value "lic-gurobi.aalto.fi"
Set parameter LogFile to value "gurobi.log"
Using license file /appl/manual_installations/software/gurobi/license/gurobi.lic

Gurobi 11.0.1 (linux64, gurobi_cl) logging started Sun Mar  9 23:57:49 2025

Set parameter TokenServer to value "lic-gurobi.aalto.fi"
Set parameter LogFile to value "gurobi.log"
Using license file /appl/manual_installations/software/gurobi/license/gurobi.lic

Gurobi 11.0.1 (linux64, gurobi_cl) logging started Sun Mar  9 23:58:04 2025

Set parameter TokenServer to value "lic-gurobi.aalto.fi"
Set parameter LogFile to value "gurobi.log"
Using license file /appl/manual_installations/software/gurobi/license/gurobi.lic

Gurobi 11.0.1 (linux64, gurobi_cl) logging started Sun Mar  9 23:58:14 2025

Set parameter TokenServer to value "lic-gurobi.aalto.fi"
Set parameter LogFile to value "gurobi.log"
Using license file /appl/manual_installations/software/gurobi/license/gurobi.lic

Gurobi 11.0.1 (linux64, gurobi_cl) logging started Mon Mar 10 00:01:33 2025

Set parameter TokenServer to value "lic-gurobi.aalto.fi"
Set parameter LogFile to value "gurobi.log"
Using license file /appl/manual_installations/software/gurobi/license/gurobi.lic

Gurobi 11.0.1 (linux64, gurobi_cl) logging started Mon Mar 10 00:01:40 2025

Set parameter TokenServer to value "lic-gurobi.aalto.fi"
Set parameter LogFile to value "gurobi.log"
Using license file /appl/manual_installations/software/gurobi/license/gurobi.lic

Gurobi 11.0.1 (linux64, gurobi_cl) logging started Mon Mar 10 00:01:47 2025

Set parameter TokenServer to value "lic-gurobi.aalto.fi"
Set parameter LogFile to value "gurobi.log"
Using license file /appl/manual_installations/software/gurobi/license/gurobi.lic
